1 1
2 2
3 1
4 2
5 2
6 1
7 1
8 2
9 2
10 2
11 1
12 1
13 1
14 2
15 2
16 2
17 2
18 1
19 2
20 1
21 1
22 1
23 2
24 1
25 1
26 2
27 1
28 2
29 2
30 2
31 1
32 1
33 1
34 1
35 2
36 2
37 2
38 2
39 1
40 1
41 1
42 2
43 2
44 1
45 2
46 2
47 2
48 1
49 2
50 2
51 2
52 1
53 1
54 2
55 1
56 1
57 1
58 1
59 2
60 1
61 2
62 2
63 2
64 2
65 1
66 2
67 1
68 2
69 1
70 2
71 1
72 2
73 1
74 2
75 1
76 1
77 2
78 2
79 2
80 1
81 2
82 1
83 1
84 2
85 1
86 1
87 1
88 2
89 1
90 2
91 1
92 1
93 2
94 2
95 2
96 1
97 1
98 2
99 1
100 2
101 1
102 2
103 1
104 2
105 2
106 1
107 2
108 1
109 2
110 2
111 1
112 1
113 2
114 1
115 1
116 2
117 2
118 1
119 1
120 2
121 1
122 1
123 2
124 2
125 2
126 2
127 2
128 2
129 2
130 2
131 1
132 1
133 2
134 2
135 1
136 2
137 2
138 2
139 1
140 2
141 1
142 1
143 1
144 2
145 1
146 2
147 2
148 2
149 2
150 2
151 1
152 2
153 1
154 2
155 2
156 1
157 2
158 2
159 2
160 2
161 2
162 2
163 1
164 2
165 1
166 1
167 2
168 2
169 2
170 1
171 1
172 2
173 2
174 1
175 2
176 1
177 2
178 2
179 1
180 1
181 2
182 1
183 2
184 2
185 2
186 1
187 1
188 1
189 2
190 2
191 2
192 1
193 2
194 1
195 1
196 1
197 2
198 2
199 1
200 1
201 1
202 2
203 1
204 2
205 1
206 2
207 1
208 1
209 1
210 1
211 1
212 1
213 1
214 1
215 2
216 1
217 1
218 2
219 2
220 1
221 1
222 2
223 1
224 1
225 2
226 1
227 1
228 1
229 2
230 1
231 1
232 2
233 1
234 2
235 1
236 2
237 2
238 1
239 1
240 1
241 1
242 1
243 1
244 2
245 2
246 2
247 2
248 1
249 1
250 1
251 2
252 1
253 2
254 1
255 1
256 2
257 1
258 1
259 2
260 2
261 2
262 1
263 1
264 2
265 1
266 2
267 2
268 1
269 1
270 2
271 1
272 1
273 1
274 1
275 2
276 1
277 1
278 2
279 2
280 2
281 1
282 2
283 1
284 1
285 1
286 2
287 1
288 1
289 2
290 1
291 1
292 2
293 2
294 2
295 2
296 1
297 1
298 1
299 2
300 2
